# Objective value = 1.9571529247814337e+03
x[0] 0
x[1] 0
x[2] 0
x[3] 0
x[4] 1
x[5] 1
x[6] 1
x[7] 1
x[8] 0
x[9] 0
x[10] 1
x[11] 1
x[12] 1
x[13] 0
x[14] 1
x[15] 1
x[16] 0
x[17] 1
x[18] 1
x[19] 1
x[20] 0
x[21] 0
x[22] 1
x[23] 1
x[24] 1
x[25] 0
x[26] 1
x[27] 0
x[28] 0
x[29] 1
x[30] 0
x[31] 1
x[32] 0
x[33] 0
x[34] 0
x[35] 0
x[36] 0
x[37] 1
x[38] 1
x[39] 0
x[40] 1
x[41] 1
x[42] 1
x[43] 1
x[44] 0
x[45] 0
x[46] 0
x[47] 0
x[48] 1
x[49] 1
x[50] 1
x[51] 1
x[52] 1
x[53] 0
x[54] 1
x[55] 1
x[56] 0
x[57] 0
x[58] 1
x[59] 1
x[60] 1
x[61] 1
x[62] 0
x[63] 1
x[64] 0
x[65] 0
x[66] 0
x[67] 1
x[68] 1
x[69] 0
x[70] 0
x[71] 1
x[72] 1
x[73] 0
x[74] 0
x[75] 1
x[76] 0
x[77] 1
x[78] 0
x[79] 1
x[80] 1
x[81] 1
x[82] 1
x[83] 1
x[84] 0
x[85] 1
x[86] 1
x[87] 0
x[88] 1
x[89] 0
x[90] 0
x[91] 1
x[92] 0
x[93] 0
x[94] 1
x[95] 1
x[96] 1
x[97] 0
x[98] 0
x[99] 1
x[100] 1
x[101] 1
x[102] 1
x[103] 1
x[104] 0
x[105] 1
x[106] 0
x[107] 1
x[108] 0
x[109] 0
x[110] 1
x[111] 1
x[112] 0
x[113] 1
x[114] 0
x[115] 1
x[116] 0
x[117] 0
x[118] 1
x[119] 1
x[120] 0
x[121] 0
x[122] 1
x[123] 0
x[124] 1
x[125] 1
x[126] 1
x[127] 1
x[128] 1
x[129] 0
x[130] 1
x[131] 1
x[132] 0
x[133] 0
x[134] 0
x[135] 0
x[136] 1
x[137] 1
x[138] 1
x[139] 0
x[140] 1
x[141] 0
x[142] 0
x[143] 0
x[144] 0
x[145] 1
x[146] 1
x[147] 1
x[148] 1
x[149] 1
x[150] 1
x[151] 1
x[152] 1
x[153] 1
x[154] 0
x[155] 0
x[156] 1
x[157] 1
x[158] 0
x[159] 0
x[160] 1
x[161] 0
x[162] 0
x[163] 1
x[164] 1
x[165] 1
x[166] 1
x[167] 1
x[168] 1
x[169] 1
x[170] 1
x[171] 1
x[172] 0
x[173] 1
x[174] 1
x[175] 1
x[176] 1
x[177] 0
x[178] 1
x[179] 0
x[180] 0
x[181] 1
x[182] 0
x[183] 1
x[184] 1
x[185] 0
x[186] 0
x[187] 0
x[188] 0
x[189] 1
x[190] 0
x[191] 0
x[192] 0
x[193] 1
x[194] 1
x[195] 1
x[196] 1
x[197] 1
x[198] 1
x[199] 1
x[200] 0
x[201] 0
x[202] 0
x[203] 0
x[204] 1
x[205] 0
x[206] 0
x[207] 1
x[208] 0
x[209] 1
x[210] 0
x[211] 0
x[212] 1
x[213] 1
x[214] 1
x[215] 1
x[216] 1
x[217] 1
x[218] 1
x[219] 1
x[220] 1
x[221] 1
x[222] 0
x[223] 0
x[224] 1
x[225] 1
x[226] 0
x[227] 1
x[228] 0
x[229] 0
x[230] 0
x[231] 1
x[232] 0
x[233] 1
x[234] 1
x[235] 1
x[236] 0
x[237] 1
x[238] 1
x[239] 0
x[240] 0
x[241] 0
x[242] 0
x[243] 0
x[244] 1
x[245] 0
x[246] 0
x[247] 1
x[248] 0
x[249] 1
x[250] 0
x[251] 0
x[252] 1
x[253] 0
x[254] 1
x[255] 1
x[256] 0
x[257] 0
x[258] 1
x[259] 1
x[260] 1
x[261] 1
x[262] 0
x[263] 1
x[264] 1
x[265] 1
x[266] 0
x[267] 1
x[268] 1
x[269] 1
x[270] 0
x[271] 1
x[272] 1
x[273] 0
x[274] 1
x[275] 1
x[276] 0
x[277] 1
x[278] 0
x[279] 0
x[280] 1
x[281] 0
x[282] 1
x[283] 1
x[284] 0
x[285] 0
x[286] 1
x[287] 1
x[288] 0
x[289] 1
x[290] 1
x[291] 1
x[292] 0
x[293] 0
x[294] 1
x[295] 0
x[296] 0
x[297] 0
x[298] 0
x[299] 1
x[300] 0
x[301] 0
x[302] 1
x[303] 1
x[304] 0
x[305] 0
x[306] 0
x[307] 1
x[308] 1
x[309] 0
x[310] 0
x[311] 0
x[312] 1
x[313] 0
x[314] 0
x[315] 0
x[316] 1
x[317] 1
x[318] 0
x[319] 0
x[320] 0
x[321] 1
x[322] 0
x[323] 1
x[324] 0
x[325] 0
x[326] 0
x[327] 1
x[328] 0
x[329] 0
x[330] 0
x[331] 0
x[332] 0
x[333] 1
x[334] 1
x[335] 0
x[336] 0
x[337] 1
x[338] 0
x[339] 1
x[340] 0
x[341] 0
x[342] 0
x[343] 1
x[344] 1
x[345] 1
x[346] 1
x[347] 1
x[348] 1
x[349] 1
x[350] 0
x[351] 1
x[352] 0
x[353] 1
x[354] 1
x[355] 1
x[356] 1
x[357] 0
x[358] 0
x[359] 0
x[360] 1
x[361] 0
x[362] 1
x[363] 1
x[364] 1
x[365] 1
x[366] 1
x[367] 0
x[368] 1
x[369] 0
x[370] 0
x[371] 0
x[372] 0
x[373] 1
x[374] 1
x[375] 0
x[376] 0
x[377] 1
x[378] 0
x[379] 1
x[380] 0
x[381] 0
x[382] 1
x[383] 0
x[384] 1
x[385] 1
x[386] 0
x[387] 1
x[388] 1
x[389] 1
x[390] 1
x[391] 1
x[392] 1
x[393] 1
x[394] 0
x[395] 0
x[396] 1
x[397] 0
x[398] 0
x[399] 1
x[400] 1
x[401] 0
x[402] 0
x[403] 0
x[404] 0
x[405] 1
x[406] 1
x[407] 1
x[408] 1
x[409] 0
x[410] 1
x[411] 1
x[412] 1
x[413] 1
x[414] 0
x[415] 1
x[416] 0
x[417] 1
x[418] 1
x[419] 0
x[420] 0
x[421] 1
x[422] 1
x[423] 0
x[424] 0
x[425] 0
x[426] 0
x[427] 0
x[428] 0
x[429] 0
x[430] 0
x[431] 1
x[432] 0
x[433] 1
x[434] 1
x[435] 1
x[436] 0
x[437] 0
x[438] 1
x[439] 1
x[440] 0
x[441] 0
x[442] 1
x[443] 0
x[444] 1
x[445] 1
x[446] 1
x[447] 1
x[448] 0
x[449] 1
x[450] 1
x[451] 0
x[452] 1
x[453] 1
x[454] 0
x[455] 0
x[456] 0
x[457] 1
x[458] 0
x[459] 1
x[460] 0
x[461] 0
x[462] 1
x[463] 0
x[464] 1
x[465] 1
x[466] 1
x[467] 1
x[468] 0
x[469] 1
x[470] 0
x[471] 1
x[472] 1
x[473] 1
x[474] 1
x[475] 0
x[476] 1
x[477] 1
x[478] 1
x[479] 1
x[480] 1
x[481] 0
x[482] 0
x[483] 0
x[484] 1
x[485] 1
x[486] 0
x[487] 1
x[488] 0
x[489] 0
x[490] 1
x[491] 1
x[492] 1
x[493] 1
x[494] 0
x[495] 0
x[496] 0
x[497] 1
x[498] 1
x[499] 1
x[500] 0
x[501] 0
x[502] 0
x[503] 0
x[504] 1
x[505] 0
x[506] 0
x[507] 0
x[508] 1
x[509] 0
x[510] 0
x[511] 0
x[512] 1
x[513] 0
x[514] 1
x[515] 0
x[516] 0
x[517] 1
x[518] 1
x[519] 1
x[520] 0
x[521] 0
x[522] 0
x[523] 1
x[524] 0
x[525] 0
x[526] 0
x[527] 1
x[528] 0
x[529] 1
x[530] 0
x[531] 1
x[532] 1
x[533] 1
x[534] 0
x[535] 1
x[536] 1
x[537] 1
x[538] 1
x[539] 1
x[540] 1
x[541] 1
x[542] 1
x[543] 1
x[544] 1
x[545] 1
x[546] 0
x[547] 0
x[548] 0
x[549] 1
x[550] 0
x[551] 0
x[552] 0
x[553] 0
x[554] 1
x[555] 0
x[556] 1
x[557] 0
x[558] 1
x[559] 1
x[560] 0
x[561] 1
x[562] 0
x[563] 0
x[564] 1
x[565] 0
x[566] 1
x[567] 1
x[568] 0
x[569] 0
x[570] 1
x[571] 0
x[572] 0
x[573] 1
x[574] 1
x[575] 1
x[576] 0
x[577] 0
x[578] 0
x[579] 1
x[580] 0
x[581] 1
x[582] 1
x[583] 1
x[584] 1
x[585] 0
x[586] 0
x[587] 1
x[588] 1
x[589] 0
x[590] 1
x[591] 0
x[592] 0
x[593] 0
x[594] 1
x[595] 1
x[596] 1
x[597] 0
x[598] 1
x[599] 1
x[600] 1
x[601] 0
x[602] 0
x[603] 1
x[604] 1
x[605] 0
x[606] 1
x[607] 0
x[608] 0
x[609] 0
x[610] 1
x[611] 1
x[612] 1
x[613] 1
x[614] 0
x[615] 0
x[616] 0
x[617] 0
x[618] 1
x[619] 1
x[620] 0
x[621] 0
x[622] 1
x[623] 0
x[624] 0
x[625] 0
x[626] 1
x[627] 0
x[628] 1
x[629] 1
x[630] 0
x[631] 1
x[632] 0
x[633] 1
x[634] 0
x[635] 1
x[636] 0
x[637] 1
x[638] 1
x[639] 0
x[640] 0
x[641] 1
x[642] 0
x[643] 0
x[644] 1
x[645] 1
x[646] 0
x[647] 1
x[648] 1
x[649] 0
x[650] 0
x[651] 1
x[652] 0
x[653] 0
x[654] 0
x[655] 0
x[656] 1
x[657] 1
x[658] 1
x[659] 0
x[660] 1
x[661] 0
x[662] 1
x[663] 0
x[664] 1
x[665] 1
x[666] 0
x[667] 0
x[668] 0
x[669] 0
x[670] 1
x[671] 1
x[672] 0
x[673] 1
x[674] 1
x[675] 1
x[676] 1
x[677] 1
x[678] 0
x[679] 0
x[680] 1
x[681] 1
x[682] 0
x[683] 0
x[684] 1
x[685] 1
x[686] 0
x[687] 1
x[688] 1
x[689] 1
x[690] 1
x[691] 1
x[692] 0
x[693] 1
x[694] 1
x[695] 1
x[696] 1
x[697] 1
x[698] 1
x[699] 0
x[700] 1
x[701] 1
x[702] 1
x[703] 0
x[704] 1
x[705] 0
x[706] 1
x[707] 1
x[708] 0
x[709] 1
x[710] 0
x[711] 1
x[712] 0
x[713] 0
x[714] 1
x[715] 0
x[716] 1
x[717] 1
x[718] 1
x[719] 1
x[720] 1
x[721] 1
x[722] 0
x[723] 0
x[724] 1
x[725] 1
x[726] 1
x[727] 0
x[728] 0
x[729] 0
x[730] 1
x[731] 1
x[732] 0
x[733] 1
x[734] 1
x[735] 1
x[736] 1
x[737] 1
x[738] 0
x[739] 0
x[740] 1
x[741] 1
x[742] 0
x[743] 0
x[744] 1
x[745] 0
x[746] 0
x[747] 0
x[748] 1
x[749] 1
x[750] 1
x[751] 1
x[752] 1
x[753] 0
x[754] 0
x[755] 0
x[756] 1
x[757] 0
x[758] 1
x[759] 1
x[760] 1
x[761] 0
x[762] 1
x[763] 0
x[764] 0
x[765] 1
x[766] 0
x[767] 1
x[768] 1
x[769] 1
x[770] 0
x[771] 1
x[772] 1
x[773] 1
x[774] 0
x[775] 0
x[776] 0
x[777] 1
x[778] 1
x[779] 1
x[780] 0
x[781] 1
x[782] 1
x[783] 1
x[784] 0
x[785] 0
x[786] 0
x[787] 1
x[788] 1
x[789] 1
x[790] 0
x[791] 0
x[792] 0
x[793] 0
x[794] 1
x[795] 0
x[796] 1
x[797] 1
x[798] 0
x[799] 0
x[800] 1
x[801] 1
x[802] 1
x[803] 1
x[804] 1
x[805] 1
x[806] 0
x[807] 1
x[808] 1
x[809] 1
x[810] 1
x[811] 1
x[812] 1
x[813] 1
x[814] 1
x[815] 1
x[816] 1
x[817] 0
x[818] 0
x[819] 1
x[820] 0
x[821] 1
x[822] 0
x[823] 1
x[824] 1
x[825] 0
x[826] 0
x[827] 0
x[828] 1
x[829] 1
x[830] 1
x[831] 1
x[832] 0
x[833] 1
x[834] 1
x[835] 1
x[836] 0
x[837] 0
x[838] 1
x[839] 1
x[840] 0
x[841] 1
x[842] 1
x[843] 1
x[844] 1
x[845] 1
x[846] 0
x[847] 1
x[848] 0
x[849] 0
x[850] 0
x[851] 1
x[852] 0
x[853] 1
x[854] 1
x[855] 0
x[856] 1
x[857] 0
x[858] 1
x[859] 1
x[860] 1
x[861] 0
x[862] 1
x[863] 1
x[864] 1
x[865] 1
x[866] 0
x[867] 1
x[868] 1
x[869] 1
x[870] 1
x[871] 0
x[872] 1
x[873] 0
x[874] 0
x[875] 1
x[876] 1
x[877] 1
x[878] 1
x[879] 1
x[880] 1
x[881] 1
x[882] 1
x[883] 1
x[884] 0
x[885] 1
x[886] 1
x[887] 0
x[888] 1
x[889] 1
x[890] 1
x[891] 0
x[892] 1
x[893] 1
x[894] 0
x[895] 1
x[896] 0
x[897] 0
x[898] 1
x[899] 1
x[900] 1
x[901] 0
x[902] 0
x[903] 1
x[904] 0
x[905] 1
x[906] 0
x[907] 1
x[908] 0
x[909] 0
x[910] 0
x[911] 0
x[912] 1
x[913] 0
x[914] 1
x[915] 0
x[916] 0
x[917] 1
x[918] 0
x[919] 0
x[920] 1
x[921] 1
x[922] 0
x[923] 0
x[924] 1
x[925] 1
x[926] 1
x[927] 1
x[928] 1
x[929] 1
x[930] 0
x[931] 0
x[932] 0
x[933] 0
x[934] 1
x[935] 1
x[936] 0
x[937] 1
x[938] 0
x[939] 1
x[940] 0
x[941] 0
x[942] 1
x[943] 1
x[944] 0
x[945] 1
x[946] 0
x[947] 0
x[948] 0
x[949] 0
x[950] 1
x[951] 1
x[952] 1
x[953] 0
x[954] 0
x[955] 1
x[956] 0
x[957] 1
x[958] 0
x[959] 1
x[960] 1
x[961] 0
x[962] 1
x[963] 1
x[964] 1
x[965] 0
x[966] 1
x[967] 0
x[968] 0
x[969] 0
x[970] 1
x[971] 0
x[972] 1
x[973] 0
x[974] 1
x[975] 0
x[976] 0
x[977] 0
x[978] 1
x[979] 0
x[980] 0
x[981] 1
x[982] 1
x[983] 1
x[984] 1
x[985] 1
x[986] 1
x[987] 1
x[988] 1
x[989] 1
x[990] 1
x[991] 1
x[992] 0
x[993] 0
x[994] 1
x[995] 1
x[996] 1
x[997] 1
x[998] 0
x[999] 0
